432
1000
798	2
797	1
795	2
794	2
793	1
792	1
791	1
790	3
788	2
786	1
784	2
783	1
782	1
781	2
780	4
779	1
778	2
777	1
776	1
775	1
774	3
772	2
771	1
770	1
768	1
764	1
763	2
761	1
760	1
759	1
758	2
757	2
756	1
755	3
752	2
751	1
749	1
747	2
744	2
743	1
742	1
739	1
738	1
735	1
734	1
732	2
729	1
728	1
727	1
724	2
723	1
722	2
721	1
719	1
717	2
716	1
715	1
712	2
711	1
709	2
708	1
707	2
705	1
703	1
702	2
701	3
700	1
699	1
698	1
697	2
696	1
695	4
694	1
692	1
688	1
687	1
686	3
685	3
684	4
683	1
682	1
681	1
680	2
679	1
677	1
676	2
674	1
673	1
672	2
670	1
669	4
667	2
666	1
665	2
664	1
662	2
661	1
660	2
659	1
657	1
656	3
655	3
654	3
653	1
652	1
651	2
650	3
648	1
647	2
646	2
645	1
644	3
643	1
642	2
641	1
638	3
637	1
636	4
635	2
633	1
632	1
631	2
630	1
629	2
628	3
627	1
626	5
623	4
622	2
621	1
620	1
618	2
617	1
616	2
615	3
614	1
613	1
612	1
611	1
610	1
609	1
606	1
605	3
602	2
601	2
600	1
599	1
598	1
597	2
596	1
595	1
594	3
592	1
589	2
588	1
587	3
585	3
579	1
578	1
577	2
575	2
574	3
572	1
571	4
570	1
569	1
568	3
567	2
566	3
565	1
564	2
563	2
561	1
556	2
555	1
554	1
553	1
552	2
551	2
550	5
549	2
548	1
546	3
545	2
544	2
543	1
541	1
540	3
539	1
537	1
536	3
535	2
534	2
532	1
531	2
530	2
528	2
527	2
525	1
523	2
521	1
519	2
518	2
515	1
514	1
513	3
511	1
510	2
509	1
508	1
507	3
506	4
505	1
501	1
500	1
499	2
496	1
495	1
494	1
493	1
490	1
489	2
488	2
487	2
486	4
485	1
480	2
478	1
476	2
475	1
474	2
473	1
472	2
469	1
468	1
467	1
465	1
464	1
463	2
462	3
461	1
460	1
457	1
456	3
453	3
452	2
451	1
449	2
446	4
445	2
441	1
440	2
437	2
436	2
434	2
432	3
431	3
430	1
429	1
428	1
427	1
425	1
424	3
421	2
420	3
419	1
418	3
416	2
415	2
413	2
412	1
410	3
408	1
407	1
406	1
405	2
404	2
403	2
402	2
401	3
400	2
399	2
398	1
397	2
396	1
394	1
391	2
390	2
389	3
388	1
387	1
386	1
384	1
382	3
379	1
378	1
377	1
375	3
374	2
373	1
372	3
369	1
368	3
367	7
366	4
365	1
363	1
362	1
361	1
360	2
359	1
357	1
356	2
354	3
353	2
352	1
350	1
349	1
348	3
344	1
343	1
342	2
340	1
337	2
336	1
335	2
334	1
332	1
330	1
329	2
326	2
325	1
324	1
323	1
322	1
320	3
319	3
318	2
317	1
316	2
315	1
314	1
313	3
312	2
311	1
310	1
309	1
308	2
307	2
305	2
304	1
302	1
300	1
299	2
297	1
296	1
295	2
294	1
293	3
292	3
290	1
289	2
288	2
285	1
284	1
283	2
282	1
281	4
280	1
279	2
278	2
276	1
275	4
274	1
273	1
272	1
268	2
266	1
265	4
264	3
263	2
262	2
260	2
259	2
258	1
257	1
256	1
255	1
254	2
253	2
252	1
250	4
249	3
248	2
247	2
246	2
245	3
244	1
243	2
242	3
241	1
240	3
239	1
238	2
237	1
236	1
235	2
234	3
233	1
232	1
230	1
229	3
226	2
223	6
222	2
221	2
220	1
219	3
218	3
216	2
215	1
213	1
211	1
210	1
209	1
208	3
207	2
204	2
203	2
202	1
201	2
200	2
